* #variable= 40 #constraint= 245
* Defense
+1 x2 +1 x4 +1 x5 +1 x6 +1 x8 +1 x11 +1 x12 +1 x17 +1 x19 -1 x21 >= 0 ;
-1 x2 -1 x4 -1 x5 -1 x6 -1 x8 -1 x11 -1 x12 -1 x17 -1 x19 -1 x21 +21 x21 >= -1 ;
+1 x22 +1 x24 +1 x25 +1 x26 +1 x28 +1 x31 +1 x32 +1 x37 +1 x39 +1 x1 -21 x1 >= -12 ;
+1 x1 +1 x4 +1 x6 +1 x7 +1 x11 +1 x13 +1 x14 +1 x15 +1 x17 -1 x22 >= 0 ;
-1 x1 -1 x4 -1 x6 -1 x7 -1 x11 -1 x13 -1 x14 -1 x15 -1 x17 -1 x22 +21 x22 >= -1 ;
+1 x21 +1 x24 +1 x26 +1 x27 +1 x31 +1 x33 +1 x34 +1 x35 +1 x37 +1 x2 -21 x2 >= -12 ;
+1 x6 +1 x11 +1 x12 +1 x14 +1 x16 +1 x18 +1 x19 +1 x20 -1 x23 >= 0 ;
-1 x6 -1 x11 -1 x12 -1 x14 -1 x16 -1 x18 -1 x19 -1 x20 -1 x23 +21 x23 >= -1 ;
+1 x26 +1 x31 +1 x32 +1 x34 +1 x36 +1 x38 +1 x39 +1 x40 +1 x3 -21 x3 >= -13 ;
+1 x1 +1 x2 +1 x8 +1 x12 +1 x15 +1 x16 +1 x18 +1 x19 +1 x20 -1 x24 >= 0 ;
-1 x1 -1 x2 -1 x8 -1 x12 -1 x15 -1 x16 -1 x18 -1 x19 -1 x20 -1 x24 +21 x24 >= -1 ;
+1 x21 +1 x22 +1 x28 +1 x32 +1 x35 +1 x36 +1 x38 +1 x39 +1 x40 +1 x4 -21 x4 >= -12 ;
+1 x7 +1 x8 +1 x10 +1 x11 +1 x14 +1 x19 +1 x20 -1 x25 >= 0 ;
-1 x7 -1 x8 -1 x10 -1 x11 -1 x14 -1 x19 -1 x20 -1 x25 +21 x25 >= -1 ;
+1 x27 +1 x28 +1 x30 +1 x31 +1 x34 +1 x39 +1 x40 +1 x5 -21 x5 >= -14 ;
+1 x1 +1 x2 +1 x5 +1 x9 +1 x12 +1 x13 +1 x15 +1 x16 +1 x17 +1 x19 +1 x20 -1 x26 >= 0 ;
-1 x1 -1 x2 -1 x5 -1 x9 -1 x12 -1 x13 -1 x15 -1 x16 -1 x17 -1 x19 -1 x20 -1 x26 +21 x26 >= -1 ;
+1 x21 +1 x22 +1 x25 +1 x29 +1 x32 +1 x33 +1 x35 +1 x36 +1 x37 +1 x39 +1 x40 +1 x6 -21 x6 >= -10 ;
+1 x2 +1 x5 +1 x8 +1 x11 +1 x12 +1 x17 +1 x20 -1 x27 >= 0 ;
-1 x2 -1 x5 -1 x8 -1 x11 -1 x12 -1 x17 -1 x20 -1 x27 +21 x27 >= -1 ;
+1 x22 +1 x25 +1 x28 +1 x31 +1 x32 +1 x37 +1 x40 +1 x7 -21 x7 >= -14 ;
+1 x2 +1 x3 +1 x4 +1 x6 +1 x7 +1 x9 +1 x16 +1 x18 +1 x20 -1 x28 >= 0 ;
-1 x2 -1 x3 -1 x4 -1 x6 -1 x7 -1 x9 -1 x16 -1 x18 -1 x20 -1 x28 +21 x28 >= -1 ;
+1 x22 +1 x23 +1 x24 +1 x26 +1 x27 +1 x29 +1 x36 +1 x38 +1 x40 +1 x8 -21 x8 >= -12 ;
+1 x4 +1 x5 +1 x6 +1 x7 +1 x8 +1 x10 +1 x14 +1 x15 +1 x17 +1 x19 +1 x20 -1 x29 >= 0 ;
-1 x4 -1 x5 -1 x6 -1 x7 -1 x8 -1 x10 -1 x14 -1 x15 -1 x17 -1 x19 -1 x20 -1 x29 +21 x29 >= -1 ;
+1 x24 +1 x25 +1 x26 +1 x27 +1 x28 +1 x30 +1 x34 +1 x35 +1 x37 +1 x39 +1 x40 +1 x9 -21 x9 >= -10 ;
+1 x1 +1 x2 +1 x5 +1 x6 +1 x7 +1 x9 +1 x11 +1 x13 +1 x14 +1 x16 +1 x18 +1 x19 +1 x20 -1 x30 >= 0 ;
-1 x1 -1 x2 -1 x5 -1 x6 -1 x7 -1 x9 -1 x11 -1 x13 -1 x14 -1 x16 -1 x18 -1 x19 -1 x20 -1 x30 +21 x30 >= -1 ;
+1 x21 +1 x22 +1 x25 +1 x26 +1 x27 +1 x29 +1 x31 +1 x33 +1 x34 +1 x36 +1 x38 +1 x39 +1 x40 +1 x10 -21 x10 >= -8 ;
+1 x1 +1 x5 +1 x6 +1 x7 +1 x12 +1 x13 +1 x16 +1 x19 -1 x31 >= 0 ;
-1 x1 -1 x5 -1 x6 -1 x7 -1 x12 -1 x13 -1 x16 -1 x19 -1 x31 +21 x31 >= -1 ;
+1 x21 +1 x25 +1 x26 +1 x27 +1 x32 +1 x33 +1 x36 +1 x39 +1 x11 -21 x11 >= -13 ;
+1 x1 +1 x2 +1 x3 +1 x4 +1 x6 +1 x9 +1 x10 +1 x13 +1 x18 +1 x20 -1 x32 >= 0 ;
-1 x1 -1 x2 -1 x3 -1 x4 -1 x6 -1 x9 -1 x10 -1 x13 -1 x18 -1 x20 -1 x32 +21 x32 >= -1 ;
+1 x21 +1 x22 +1 x23 +1 x24 +1 x26 +1 x29 +1 x30 +1 x33 +1 x38 +1 x40 +1 x12 -21 x12 >= -11 ;
+1 x3 +1 x4 +1 x7 +1 x8 +1 x10 +1 x16 +1 x17 +1 x18 +1 x19 +1 x20 -1 x33 >= 0 ;
-1 x3 -1 x4 -1 x7 -1 x8 -1 x10 -1 x16 -1 x17 -1 x18 -1 x19 -1 x20 -1 x33 +21 x33 >= -1 ;
+1 x23 +1 x24 +1 x27 +1 x28 +1 x30 +1 x36 +1 x37 +1 x38 +1 x39 +1 x40 +1 x13 -21 x13 >= -11 ;
+1 x3 +1 x5 +1 x6 +1 x8 +1 x10 +1 x11 +1 x12 +1 x13 +1 x15 +1 x16 +1 x17 +1 x18 +1 x19 +1 x20 -1 x34 >= 0 ;
-1 x3 -1 x5 -1 x6 -1 x8 -1 x10 -1 x11 -1 x12 -1 x13 -1 x15 -1 x16 -1 x17 -1 x18 -1 x19 -1 x20 -1 x34 +21 x34 >= -1 ;
+1 x23 +1 x25 +1 x26 +1 x28 +1 x30 +1 x31 +1 x32 +1 x33 +1 x35 +1 x36 +1 x37 +1 x38 +1 x39 +1 x40 +1 x14 -21 x14 >= -7 ;
+1 x4 +1 x8 +1 x10 +1 x12 +1 x13 +1 x17 +1 x18 +1 x19 -1 x35 >= 0 ;
-1 x4 -1 x8 -1 x10 -1 x12 -1 x13 -1 x17 -1 x18 -1 x19 -1 x35 +21 x35 >= -1 ;
+1 x24 +1 x28 +1 x30 +1 x32 +1 x33 +1 x37 +1 x38 +1 x39 +1 x15 -21 x15 >= -13 ;
+1 x1 +1 x5 +1 x6 +1 x7 +1 x8 +1 x11 +1 x13 +1 x14 +1 x17 +1 x18 +1 x19 +1 x20 -1 x36 >= 0 ;
-1 x1 -1 x5 -1 x6 -1 x7 -1 x8 -1 x11 -1 x13 -1 x14 -1 x17 -1 x18 -1 x19 -1 x20 -1 x36 +21 x36 >= -1 ;
+1 x21 +1 x25 +1 x26 +1 x27 +1 x28 +1 x31 +1 x33 +1 x34 +1 x37 +1 x38 +1 x39 +1 x40 +1 x16 -21 x16 >= -9 ;
+1 x1 +1 x10 +1 x13 +1 x14 +1 x15 +1 x18 +1 x19 +1 x20 -1 x37 >= 0 ;
-1 x1 -1 x10 -1 x13 -1 x14 -1 x15 -1 x18 -1 x19 -1 x20 -1 x37 +21 x37 >= -1 ;
+1 x21 +1 x30 +1 x33 +1 x34 +1 x35 +1 x38 +1 x39 +1 x40 +1 x17 -21 x17 >= -13 ;
+1 x1 +1 x2 +1 x11 +1 x16 -1 x38 >= 0 ;
-1 x1 -1 x2 -1 x11 -1 x16 -1 x38 +21 x38 >= -1 ;
+1 x21 +1 x22 +1 x31 +1 x36 +1 x18 -21 x18 >= -17 ;
+1 x2 +1 x3 +1 x5 +1 x6 +1 x8 +1 x10 +1 x11 +1 x13 +1 x15 +1 x16 +1 x17 +1 x18 +1 x20 -1 x39 >= 0 ;
-1 x2 -1 x3 -1 x5 -1 x6 -1 x8 -1 x10 -1 x11 -1 x13 -1 x15 -1 x16 -1 x17 -1 x18 -1 x20 -1 x39 +21 x39 >= -1 ;
+1 x22 +1 x23 +1 x25 +1 x26 +1 x28 +1 x30 +1 x31 +1 x33 +1 x35 +1 x36 +1 x37 +1 x38 +1 x40 +1 x19 -21 x19 >= -8 ;
+1 x1 +1 x10 +1 x11 +1 x12 +1 x14 -1 x40 >= 0 ;
-1 x1 -1 x10 -1 x11 -1 x12 -1 x14 -1 x40 +21 x40 >= -1 ;
+1 x21 +1 x30 +1 x31 +1 x32 +1 x34 +1 x20 -21 x20 >= -16 ;
* Strong Conflict Free
-1 x1 -1 x2 >= -1 ;
-1 x1 -1 x4 >= -1 ;
-1 x1 -1 x6 >= -1 ;
-1 x1 -1 x10 >= -1 ;
-1 x1 -1 x11 >= -1 ;
-1 x1 -1 x12 >= -1 ;
-1 x1 -1 x16 >= -1 ;
-1 x1 -1 x17 >= -1 ;
-1 x1 -1 x18 >= -1 ;
-1 x1 -1 x20 >= -1 ;
-1 x2 -1 x1 >= -1 ;
-1 x2 -1 x4 >= -1 ;
-1 x2 -1 x6 >= -1 ;
-1 x2 -1 x7 >= -1 ;
-1 x2 -1 x8 >= -1 ;
-1 x2 -1 x10 >= -1 ;
-1 x2 -1 x12 >= -1 ;
-1 x2 -1 x18 >= -1 ;
-1 x2 -1 x19 >= -1 ;
-1 x3 -1 x8 >= -1 ;
-1 x3 -1 x12 >= -1 ;
-1 x3 -1 x13 >= -1 ;
-1 x3 -1 x14 >= -1 ;
-1 x3 -1 x19 >= -1 ;
-1 x4 -1 x1 >= -1 ;
-1 x4 -1 x2 >= -1 ;
-1 x4 -1 x8 >= -1 ;
-1 x4 -1 x9 >= -1 ;
-1 x4 -1 x12 >= -1 ;
-1 x4 -1 x13 >= -1 ;
-1 x4 -1 x15 >= -1 ;
-1 x5 -1 x1 >= -1 ;
-1 x5 -1 x6 >= -1 ;
-1 x5 -1 x7 >= -1 ;
-1 x5 -1 x9 >= -1 ;
-1 x5 -1 x10 >= -1 ;
-1 x5 -1 x11 >= -1 ;
-1 x5 -1 x14 >= -1 ;
-1 x5 -1 x16 >= -1 ;
-1 x5 -1 x19 >= -1 ;
-1 x6 -1 x1 >= -1 ;
-1 x6 -1 x2 >= -1 ;
-1 x6 -1 x3 >= -1 ;
-1 x6 -1 x8 >= -1 ;
-1 x6 -1 x9 >= -1 ;
-1 x6 -1 x10 >= -1 ;
-1 x6 -1 x11 >= -1 ;
-1 x6 -1 x12 >= -1 ;
-1 x6 -1 x14 >= -1 ;
-1 x6 -1 x16 >= -1 ;
-1 x6 -1 x19 >= -1 ;
-1 x7 -1 x2 >= -1 ;
-1 x7 -1 x5 >= -1 ;
-1 x7 -1 x8 >= -1 ;
-1 x7 -1 x9 >= -1 ;
-1 x7 -1 x10 >= -1 ;
-1 x7 -1 x11 >= -1 ;
-1 x7 -1 x13 >= -1 ;
-1 x7 -1 x16 >= -1 ;
-1 x8 -1 x1 >= -1 ;
-1 x8 -1 x4 >= -1 ;
-1 x8 -1 x5 >= -1 ;
-1 x8 -1 x7 >= -1 ;
-1 x8 -1 x9 >= -1 ;
-1 x8 -1 x13 >= -1 ;
-1 x8 -1 x14 >= -1 ;
-1 x8 -1 x15 >= -1 ;
-1 x8 -1 x16 >= -1 ;
-1 x8 -1 x19 >= -1 ;
-1 x9 -1 x6 >= -1 ;
-1 x9 -1 x8 >= -1 ;
-1 x9 -1 x10 >= -1 ;
-1 x9 -1 x12 >= -1 ;
-1 x10 -1 x5 >= -1 ;
-1 x10 -1 x9 >= -1 ;
-1 x10 -1 x12 >= -1 ;
-1 x10 -1 x13 >= -1 ;
-1 x10 -1 x14 >= -1 ;
-1 x10 -1 x15 >= -1 ;
-1 x10 -1 x17 >= -1 ;
-1 x10 -1 x19 >= -1 ;
-1 x10 -1 x20 >= -1 ;
-1 x11 -1 x1 >= -1 ;
-1 x11 -1 x2 >= -1 ;
-1 x11 -1 x3 >= -1 ;
-1 x11 -1 x5 >= -1 ;
-1 x11 -1 x7 >= -1 ;
-1 x11 -1 x10 >= -1 ;
-1 x11 -1 x14 >= -1 ;
-1 x11 -1 x16 >= -1 ;
-1 x11 -1 x18 >= -1 ;
-1 x11 -1 x19 >= -1 ;
-1 x11 -1 x20 >= -1 ;
-1 x12 -1 x1 >= -1 ;
-1 x12 -1 x3 >= -1 ;
-1 x12 -1 x4 >= -1 ;
-1 x12 -1 x6 >= -1 ;
-1 x12 -1 x7 >= -1 ;
-1 x12 -1 x11 >= -1 ;
-1 x12 -1 x14 >= -1 ;
-1 x12 -1 x15 >= -1 ;
-1 x12 -1 x20 >= -1 ;
-1 x13 -1 x2 >= -1 ;
-1 x13 -1 x6 >= -1 ;
-1 x13 -1 x10 >= -1 ;
-1 x13 -1 x11 >= -1 ;
-1 x13 -1 x12 >= -1 ;
-1 x13 -1 x14 >= -1 ;
-1 x13 -1 x15 >= -1 ;
-1 x13 -1 x16 >= -1 ;
-1 x13 -1 x17 >= -1 ;
-1 x13 -1 x19 >= -1 ;
-1 x14 -1 x2 >= -1 ;
-1 x14 -1 x3 >= -1 ;
-1 x14 -1 x5 >= -1 ;
-1 x14 -1 x9 >= -1 ;
-1 x14 -1 x10 >= -1 ;
-1 x14 -1 x16 >= -1 ;
-1 x14 -1 x17 >= -1 ;
-1 x14 -1 x20 >= -1 ;
-1 x15 -1 x2 >= -1 ;
-1 x15 -1 x4 >= -1 ;
-1 x15 -1 x6 >= -1 ;
-1 x15 -1 x9 >= -1 ;
-1 x15 -1 x14 >= -1 ;
-1 x15 -1 x17 >= -1 ;
-1 x15 -1 x19 >= -1 ;
-1 x16 -1 x3 >= -1 ;
-1 x16 -1 x4 >= -1 ;
-1 x16 -1 x6 >= -1 ;
-1 x16 -1 x8 >= -1 ;
-1 x16 -1 x10 >= -1 ;
-1 x16 -1 x11 >= -1 ;
-1 x16 -1 x13 >= -1 ;
-1 x16 -1 x14 >= -1 ;
-1 x16 -1 x18 >= -1 ;
-1 x16 -1 x19 >= -1 ;
-1 x17 -1 x1 >= -1 ;
-1 x17 -1 x2 >= -1 ;
-1 x17 -1 x6 >= -1 ;
-1 x17 -1 x7 >= -1 ;
-1 x17 -1 x9 >= -1 ;
-1 x17 -1 x13 >= -1 ;
-1 x17 -1 x14 >= -1 ;
-1 x17 -1 x15 >= -1 ;
-1 x17 -1 x16 >= -1 ;
-1 x17 -1 x19 >= -1 ;
-1 x18 -1 x3 >= -1 ;
-1 x18 -1 x4 >= -1 ;
-1 x18 -1 x8 >= -1 ;
-1 x18 -1 x10 >= -1 ;
-1 x18 -1 x12 >= -1 ;
-1 x18 -1 x13 >= -1 ;
-1 x18 -1 x14 >= -1 ;
-1 x18 -1 x15 >= -1 ;
-1 x18 -1 x16 >= -1 ;
-1 x18 -1 x17 >= -1 ;
-1 x18 -1 x19 >= -1 ;
-1 x19 -1 x1 >= -1 ;
-1 x19 -1 x3 >= -1 ;
-1 x19 -1 x4 >= -1 ;
-1 x19 -1 x5 >= -1 ;
-1 x19 -1 x6 >= -1 ;
-1 x19 -1 x9 >= -1 ;
-1 x19 -1 x10 >= -1 ;
-1 x19 -1 x11 >= -1 ;
-1 x19 -1 x13 >= -1 ;
-1 x19 -1 x14 >= -1 ;
-1 x19 -1 x15 >= -1 ;
-1 x19 -1 x16 >= -1 ;
-1 x19 -1 x17 >= -1 ;
-1 x20 -1 x3 >= -1 ;
-1 x20 -1 x4 >= -1 ;
-1 x20 -1 x5 >= -1 ;
-1 x20 -1 x6 >= -1 ;
-1 x20 -1 x7 >= -1 ;
-1 x20 -1 x8 >= -1 ;
-1 x20 -1 x9 >= -1 ;
-1 x20 -1 x10 >= -1 ;
-1 x20 -1 x12 >= -1 ;
-1 x20 -1 x13 >= -1 ;
-1 x20 -1 x14 >= -1 ;
-1 x20 -1 x16 >= -1 ;
-1 x20 -1 x17 >= -1 ;
-1 x20 -1 x19 >= -1 ;
